rand_21
0 295 278 206 268 84 283 150 248 236 113 75 43 170 223 27 65 229 105 194 296 254 227 242 226 80 276 196 69 251 56 271 8 252 20 198 48 279 87 137 193 71 144 233 47 74 118 249 179 267 259 92 158 122 82 192 117 50 171 143 26 68 129 3 21 89 269 224 210 93 205 189 114 41 28 214 195 225 78 67 101 99 40 235 201 282 146 243 218 287 15 246 3 232 73 221 16 237 164 36 166 202 94 17 79 58 125 96 222 45 234 238 197 86 12 115 162 263 274 240 204 177 121 132 286 231 148 90 184 178 289 29 119 262 14 53 25 185 83 183 63 102 290 39 245 301 199 91 12 186 297 138 288 154 24 112 76 18 108 275 46 247 51 30 152 211 123 149 182 127 77 134 135 244 31 175 213 160 10 270 44 62 35 294 57 260 81 72 200 298 208 111 151 265 64 55 280 285 168 70 130 42 215 258 255 159 250 98 1 219 13 61 188 85 33 97 207 284 190 212 0